p td 22 93
2 1
3 1
4 3
4 1
5 1
6 4
6 5
7 1
7 2
7 4
7 6
7 3
8 7
8 5
9 1
9 6
9 8
10 9
10 6
10 2
11 9
11 5
11 10
11 8
12 5
12 1
12 3
12 10
12 8
12 7
13 10
13 1
13 12
13 4
13 11
13 5
13 7
14 13
14 8
14 10
14 7
15 7
15 5
15 12
15 8
15 4
15 10
16 11
16 7
16 8
16 5
17 10
17 16
17 11
17 5
17 2
17 15
17 7
18 14
18 1
18 8
18 17
18 7
19 18
19 10
19 12
19 17
19 13
20 6
20 11
20 14
20 1
20 10
20 9
20 12
21 10
21 1
21 6
21 15
21 7
21 20
21 4
21 18
22 19
22 18
22 21
22 7
22 2
22 15
22 14
22 1
22 16
22 3
